c preprocessed version of ship-ship-wpp, 24 vertices, 65 edges
p td 24 65
0 1
0 3
0 7
0 13
4 0
12 0
6 0
19 0
20 0
2 1
19 1
18 1
2 3
9 2
18 2
17 2
4 3
17 3
5 4
10 4
5 6
10 5
6 7
8 7
15 7
9 8
8 13
15 8
14 8
10 8
20 8
10 9
20 9
10 11
10 19
10 20
11 12
11 19
12 13
14 13
14 15
14 16
15 16
16 17
16 18
17 18
21 23
21 2
21 5
21 9
21 11
21 12
21 6
21 22
22 23
22 10
22 20
22 19
22 12
22 11
22 5
23 0
23 2
23 9
23 20
